; benchmark generated from python API
(set-info :status unknown)
(declare-fun x_epoch () (_ BitVec 32))
(declare-fun y_epoch () (_ BitVec 32))
(declare-fun x_plus_epoch () (_ BitVec 32))
(declare-fun x_plus_month () (_ BitVec 32))
(declare-fun x_plus_year () (_ BitVec 32))
(declare-fun x_plus_day () (_ BitVec 32))
(assert
 (bvsle (_ bv4294930771 32) x_epoch))
(assert
 (bvsge (_ bv36523 32) x_epoch))
(assert
 (bvsle (_ bv4294930771 32) y_epoch))
(assert
 (bvsge (_ bv36523 32) y_epoch))
(assert
 (= x_epoch (_ bv7990 32)))
(assert
 (bvsle (_ bv4294930771 32) x_plus_epoch))
(assert
 (bvsge (_ bv36523 32) x_plus_epoch))
(assert
 (let (($x2508 (= x_plus_month (_ bv11 32))))
 (let (($x8138 (= x_plus_month (_ bv9 32))))
 (let (($x3393 (= x_plus_month (_ bv6 32))))
 (let (($x2214 (= x_plus_month (_ bv4 32))))
 (let ((?x7553 (ite (or $x2214 $x3393 $x8138 $x2508) (_ bv30 32) (_ bv31 32))))
 (let (($x1408 (and (= (bvsmod x_plus_year (_ bv4 32)) (_ bv0 32)) (and (distinct (bvsmod x_plus_year (_ bv100 32)) (_ bv0 32)) true))))
 (let (($x1516 (or $x1408 (= (bvsmod x_plus_year (_ bv400 32)) (_ bv0 32)))))
 (let (($x4486 (= x_plus_month (_ bv2 32))))
 (let (($x1138 (bvsle (_ bv1 32) x_plus_day)))
 (let (($x2456 (bvsle (_ bv1 32) x_plus_month)))
 (let (($x3273 (bvsle (_ bv1900 32) x_plus_year)))
 (and $x3273 (bvsge (_ bv2100 32) x_plus_year) $x2456 (bvsge (_ bv12 32) x_plus_month) $x1138 (bvsle x_plus_day (ite $x4486 (ite $x1516 (_ bv29 32) (_ bv28 32)) ?x7553)))))))))))))))
(assert
 (let (($x1408 (and (= (bvsmod x_plus_year (_ bv4 32)) (_ bv0 32)) (and (distinct (bvsmod x_plus_year (_ bv100 32)) (_ bv0 32)) true))))
 (let (($x1516 (or $x1408 (= (bvsmod x_plus_year (_ bv400 32)) (_ bv0 32)))))
 (let ((?x3062 (ite (= (_ bv2 32) x_plus_month) (ite $x1516 (_ bv31 32) (_ bv31 32)) (ite (= (_ bv1 32) x_plus_month) (ite $x1516 (_ bv0 32) (_ bv0 32)) (_ bv0 32)))))
 (let ((?x5284 (ite (= (_ bv4 32) x_plus_month) (ite $x1516 (_ bv91 32) (_ bv90 32)) (ite (= (_ bv3 32) x_plus_month) (ite $x1516 (_ bv60 32) (_ bv59 32)) ?x3062))))
 (let ((?x1618 (ite (= (_ bv6 32) x_plus_month) (ite $x1516 (_ bv152 32) (_ bv151 32)) (ite (= (_ bv5 32) x_plus_month) (ite $x1516 (_ bv121 32) (_ bv120 32)) ?x5284))))
 (let ((?x5063 (ite (= (_ bv8 32) x_plus_month) (ite $x1516 (_ bv213 32) (_ bv212 32)) (ite (= (_ bv7 32) x_plus_month) (ite $x1516 (_ bv182 32) (_ bv181 32)) ?x1618))))
 (let ((?x877 (ite (= (_ bv10 32) x_plus_month) (ite $x1516 (_ bv274 32) (_ bv273 32)) (ite (= (_ bv9 32) x_plus_month) (ite $x1516 (_ bv244 32) (_ bv243 32)) ?x5063))))
 (let ((?x5437 (ite (= (_ bv12 32) x_plus_month) (ite $x1516 (_ bv335 32) (_ bv334 32)) (ite (= (_ bv11 32) x_plus_month) (ite $x1516 (_ bv305 32) (_ bv304 32)) ?x877))))
 (let ((?x3923 (bvadd (bvmul (_ bv365 32) (bvsub x_plus_year (_ bv1 32))) (bvsdiv (bvsub x_plus_year (_ bv1 32)) (_ bv4 32)))))
 (let ((?x2076 (bvadd (bvsub ?x3923 (bvsdiv (bvsub x_plus_year (_ bv1 32)) (_ bv100 32))) (bvsdiv (bvsub x_plus_year (_ bv1 32)) (_ bv400 32)))))
 (= x_plus_epoch (bvsub (bvadd (bvadd ?x2076 ?x5437) (bvsub x_plus_day (_ bv1 32))) (_ bv730179 32))))))))))))))
(assert
 (let ((?x1201 (bvadd x_epoch (_ bv730179 32))))
 (let ((?x33573 (bvsmod ?x1201 (_ bv146097 32))))
 (let ((?x2516 (bvsdiv ?x33573 (_ bv36524 32))))
 (let ((?x15886 (ite (bvsle (_ bv4 32) ?x2516) (_ bv3 32) ?x2516)))
 (let ((?x8168 (bvsub ?x33573 (bvmul ?x15886 (_ bv36524 32)))))
 (let ((?x1140 (bvsmod ?x8168 (_ bv1461 32))))
 (let ((?x1161 (bvsdiv ?x1140 (_ bv365 32))))
 (let ((?x11749 (ite (bvsle (_ bv4 32) ?x1161) (_ bv3 32) ?x1161)))
 (let ((?x3564 (bvadd (bvadd (bvmul (bvsdiv ?x1201 (_ bv146097 32)) (_ bv400 32)) (bvmul ?x15886 (_ bv100 32))) (bvmul (bvsdiv ?x8168 (_ bv1461 32)) (_ bv4 32)))))
 (let ((?x26236 (bvadd (bvadd ?x3564 ?x11749) (_ bv1 32))))
 (let (($x11908 (or (and (= (bvsmod ?x26236 (_ bv4 32)) (_ bv0 32)) (and (distinct (bvsmod ?x26236 (_ bv100 32)) (_ bv0 32)) true)) (= (bvsmod ?x26236 (_ bv400 32)) (_ bv0 32)))))
 (let ((?x2337 (bvsub ?x1140 (bvmul ?x11749 (_ bv365 32)))))
 (let ((?x3734 (ite $x11908 (_ bv31 32) (_ bv31 32))))
 (let (($x5366 (bvsge ?x2337 ?x3734)))
 (let ((?x5792 (ite $x5366 (bvadd (bvsub ?x2337 ?x3734) (_ bv1 32)) (bvadd (bvsub ?x2337 (ite $x11908 (_ bv0 32) (_ bv0 32))) (_ bv1 32)))))
 (let ((?x47417 (ite $x11908 (_ bv60 32) (_ bv59 32))))
 (let (($x805 (bvsge ?x2337 ?x47417)))
 (let ((?x2296 (ite $x11908 (_ bv91 32) (_ bv90 32))))
 (let (($x3364 (bvsge ?x2337 ?x2296)))
 (let ((?x20760 (ite $x3364 (bvadd (bvsub ?x2337 ?x2296) (_ bv1 32)) (ite $x805 (bvadd (bvsub ?x2337 ?x47417) (_ bv1 32)) ?x5792))))
 (let ((?x37289 (ite $x11908 (_ bv121 32) (_ bv120 32))))
 (let (($x1945 (bvsge ?x2337 ?x37289)))
 (let ((?x2125 (ite $x11908 (_ bv152 32) (_ bv151 32))))
 (let (($x5091 (bvsge ?x2337 ?x2125)))
 (let ((?x5445 (ite $x5091 (bvadd (bvsub ?x2337 ?x2125) (_ bv1 32)) (ite $x1945 (bvadd (bvsub ?x2337 ?x37289) (_ bv1 32)) ?x20760))))
 (let ((?x1626 (ite $x11908 (_ bv182 32) (_ bv181 32))))
 (let (($x583 (bvsge ?x2337 ?x1626)))
 (let ((?x3068 (ite $x11908 (_ bv213 32) (_ bv212 32))))
 (let (($x2937 (bvsge ?x2337 ?x3068)))
 (let ((?x701 (ite $x2937 (bvadd (bvsub ?x2337 ?x3068) (_ bv1 32)) (ite $x583 (bvadd (bvsub ?x2337 ?x1626) (_ bv1 32)) ?x5445))))
 (let ((?x1549 (ite $x11908 (_ bv244 32) (_ bv243 32))))
 (let (($x2961 (bvsge ?x2337 ?x1549)))
 (let ((?x8141 (ite $x11908 (_ bv274 32) (_ bv273 32))))
 (let (($x2577 (bvsge ?x2337 ?x8141)))
 (let ((?x596 (ite $x2577 (bvadd (bvsub ?x2337 ?x8141) (_ bv1 32)) (ite $x2961 (bvadd (bvsub ?x2337 ?x1549) (_ bv1 32)) ?x701))))
 (let ((?x903 (ite $x11908 (_ bv305 32) (_ bv304 32))))
 (let (($x1761 (bvsge ?x2337 ?x903)))
 (let ((?x6357 (ite $x11908 (_ bv335 32) (_ bv334 32))))
 (let (($x783 (bvsge ?x2337 ?x6357)))
 (let ((?x42519 (ite $x783 (bvadd (bvsub ?x2337 ?x6357) (_ bv1 32)) (ite $x1761 (bvadd (bvsub ?x2337 ?x903) (_ bv1 32)) ?x596))))
 (let ((?x4253 (bvmul (_ bv0 32) (_ bv12 32))))
 (let ((?x46826 (bvadd ?x4253 (_ bv13 32))))
 (let ((?x61399 (ite $x5091 (_ bv6 32) (ite $x1945 (_ bv5 32) (ite $x3364 (_ bv4 32) (ite $x805 (_ bv3 32) (ite $x5366 (_ bv2 32) (_ bv1 32))))))))
 (let ((?x6068 (ite $x1761 (_ bv11 32) (ite $x2577 (_ bv10 32) (ite $x2961 (_ bv9 32) (ite $x2937 (_ bv8 32) (ite $x583 (_ bv7 32) ?x61399)))))))
 (let ((?x11059 (ite $x783 (_ bv12 32) ?x6068)))
 (let ((?x54211 (bvadd ?x11059 ?x46826)))
 (let ((?x27916 (bvsub (ite (bvuge ?x54211 (_ bv2147483648 32)) (bvsub ?x54211 (_ bv0 32)) ?x54211) (_ bv1 32))))
 (let ((?x51756 (bvsmod ?x27916 (_ bv12 32))))
 (let ((?x81247 (bvadd ?x51756 (_ bv1 32))))
 (let ((?x77643 (ite (or (= ?x81247 (_ bv4 32)) (= ?x81247 (_ bv6 32)) (= ?x81247 (_ bv9 32)) (= ?x81247 (_ bv11 32))) (_ bv30 32) (_ bv31 32))))
 (let ((?x81140 (bvsdiv ?x27916 (_ bv12 32))))
 (let ((?x77607 (ite (and (bvuge ?x27916 (_ bv2147483648 32)) (and (distinct (_ bv0 32) ?x51756) true)) (bvsub ?x81140 (_ bv1 32)) ?x81140)))
 (let ((?x44658 (bvadd (_ bv0 32) ?x77607)))
 (let ((?x81225 (bvadd ?x26236 ?x44658)))
 (let (($x81081 (or (and (= (bvsmod ?x81225 (_ bv4 32)) (_ bv0 32)) (and (distinct (bvsmod ?x81225 (_ bv100 32)) (_ bv0 32)) true)) (= (bvsmod ?x81225 (_ bv400 32)) (_ bv0 32)))))
 (let ((?x77705 (ite (= ?x81247 (_ bv2 32)) (ite $x81081 (_ bv29 32) (_ bv28 32)) ?x77643)))
 (let (($x58947 (bvsgt (_ bv1 32) ?x42519)))
 (let ((?x77622 (ite $x58947 (_ bv1 32) (ite (bvsgt ?x42519 ?x77705) ?x77705 ?x42519))))
 (let ((?x2429 (ite (bvsgt (_ bv1 32) ?x77622) (_ bv1 32) (ite (bvsgt ?x77622 ?x77705) ?x77705 ?x77622))))
 (let ((?x81201 (ite (= (_ bv2 32) ?x81247) (ite $x81081 (_ bv31 32) (_ bv31 32)) (ite (= (_ bv1 32) ?x81247) (ite $x81081 (_ bv0 32) (_ bv0 32)) (_ bv0 32)))))
 (let ((?x30339 (ite (= (_ bv4 32) ?x81247) (ite $x81081 (_ bv91 32) (_ bv90 32)) (ite (= (_ bv3 32) ?x81247) (ite $x81081 (_ bv60 32) (_ bv59 32)) ?x81201))))
 (let ((?x26482 (ite (= (_ bv6 32) ?x81247) (ite $x81081 (_ bv152 32) (_ bv151 32)) (ite (= (_ bv5 32) ?x81247) (ite $x81081 (_ bv121 32) (_ bv120 32)) ?x30339))))
 (let ((?x26290 (ite (= (_ bv8 32) ?x81247) (ite $x81081 (_ bv213 32) (_ bv212 32)) (ite (= (_ bv7 32) ?x81247) (ite $x81081 (_ bv182 32) (_ bv181 32)) ?x26482))))
 (let ((?x25780 (ite (= (_ bv10 32) ?x81247) (ite $x81081 (_ bv274 32) (_ bv273 32)) (ite (= (_ bv9 32) ?x81247) (ite $x81081 (_ bv244 32) (_ bv243 32)) ?x26290))))
 (let ((?x10666 (ite (= (_ bv12 32) ?x81247) (ite $x81081 (_ bv335 32) (_ bv334 32)) (ite (= (_ bv11 32) ?x81247) (ite $x81081 (_ bv305 32) (_ bv304 32)) ?x25780))))
 (let ((?x31145 (bvadd (bvmul (_ bv365 32) (bvsub ?x81225 (_ bv1 32))) (bvsdiv (bvsub ?x81225 (_ bv1 32)) (_ bv4 32)))))
 (let ((?x81146 (bvadd (bvsub ?x31145 (bvsdiv (bvsub ?x81225 (_ bv1 32)) (_ bv100 32))) (bvsdiv (bvsub ?x81225 (_ bv1 32)) (_ bv400 32)))))
 (let ((?x26500 (bvadd (bvadd (bvsub (bvadd (bvadd ?x81146 ?x10666) (bvsub ?x2429 (_ bv1 32))) (_ bv730179 32)) (_ bv40 32)) (_ bv730179 32))))
 (let ((?x81439 (bvsmod ?x26500 (_ bv146097 32))))
 (let ((?x81350 (bvsdiv ?x81439 (_ bv36524 32))))
 (let ((?x81342 (ite (bvsle (_ bv4 32) ?x81350) (_ bv3 32) ?x81350)))
 (let ((?x77787 (bvsub ?x81439 (bvmul ?x81342 (_ bv36524 32)))))
 (let ((?x77687 (bvsmod ?x77787 (_ bv1461 32))))
 (let ((?x77774 (bvsdiv ?x77687 (_ bv365 32))))
 (let ((?x81086 (ite (bvsle (_ bv4 32) ?x77774) (_ bv3 32) ?x77774)))
 (let ((?x18961 (bvadd (bvadd (bvmul (bvsdiv ?x26500 (_ bv146097 32)) (_ bv400 32)) (bvmul ?x81342 (_ bv100 32))) (bvmul (bvsdiv ?x77787 (_ bv1461 32)) (_ bv4 32)))))
 (let ((?x30242 (bvadd (bvadd ?x18961 ?x81086) (_ bv1 32))))
 (let (($x81088 (= (_ bv40 32) (_ bv0 32))))
 (let ((?x81318 (ite $x81088 ?x81225 ?x30242)))
 (= x_plus_year ?x81318)))))))))))))))))))))))))))))))))))))))))))))))))))))))))))))))))))))))))))))))))
(assert
 (let ((?x1201 (bvadd x_epoch (_ bv730179 32))))
 (let ((?x33573 (bvsmod ?x1201 (_ bv146097 32))))
 (let ((?x2516 (bvsdiv ?x33573 (_ bv36524 32))))
 (let ((?x15886 (ite (bvsle (_ bv4 32) ?x2516) (_ bv3 32) ?x2516)))
 (let ((?x8168 (bvsub ?x33573 (bvmul ?x15886 (_ bv36524 32)))))
 (let ((?x1140 (bvsmod ?x8168 (_ bv1461 32))))
 (let ((?x1161 (bvsdiv ?x1140 (_ bv365 32))))
 (let ((?x11749 (ite (bvsle (_ bv4 32) ?x1161) (_ bv3 32) ?x1161)))
 (let ((?x3564 (bvadd (bvadd (bvmul (bvsdiv ?x1201 (_ bv146097 32)) (_ bv400 32)) (bvmul ?x15886 (_ bv100 32))) (bvmul (bvsdiv ?x8168 (_ bv1461 32)) (_ bv4 32)))))
 (let ((?x26236 (bvadd (bvadd ?x3564 ?x11749) (_ bv1 32))))
 (let (($x11908 (or (and (= (bvsmod ?x26236 (_ bv4 32)) (_ bv0 32)) (and (distinct (bvsmod ?x26236 (_ bv100 32)) (_ bv0 32)) true)) (= (bvsmod ?x26236 (_ bv400 32)) (_ bv0 32)))))
 (let ((?x2337 (bvsub ?x1140 (bvmul ?x11749 (_ bv365 32)))))
 (let ((?x3734 (ite $x11908 (_ bv31 32) (_ bv31 32))))
 (let (($x5366 (bvsge ?x2337 ?x3734)))
 (let ((?x5792 (ite $x5366 (bvadd (bvsub ?x2337 ?x3734) (_ bv1 32)) (bvadd (bvsub ?x2337 (ite $x11908 (_ bv0 32) (_ bv0 32))) (_ bv1 32)))))
 (let ((?x47417 (ite $x11908 (_ bv60 32) (_ bv59 32))))
 (let (($x805 (bvsge ?x2337 ?x47417)))
 (let ((?x2296 (ite $x11908 (_ bv91 32) (_ bv90 32))))
 (let (($x3364 (bvsge ?x2337 ?x2296)))
 (let ((?x20760 (ite $x3364 (bvadd (bvsub ?x2337 ?x2296) (_ bv1 32)) (ite $x805 (bvadd (bvsub ?x2337 ?x47417) (_ bv1 32)) ?x5792))))
 (let ((?x37289 (ite $x11908 (_ bv121 32) (_ bv120 32))))
 (let (($x1945 (bvsge ?x2337 ?x37289)))
 (let ((?x2125 (ite $x11908 (_ bv152 32) (_ bv151 32))))
 (let (($x5091 (bvsge ?x2337 ?x2125)))
 (let ((?x5445 (ite $x5091 (bvadd (bvsub ?x2337 ?x2125) (_ bv1 32)) (ite $x1945 (bvadd (bvsub ?x2337 ?x37289) (_ bv1 32)) ?x20760))))
 (let ((?x1626 (ite $x11908 (_ bv182 32) (_ bv181 32))))
 (let (($x583 (bvsge ?x2337 ?x1626)))
 (let ((?x3068 (ite $x11908 (_ bv213 32) (_ bv212 32))))
 (let (($x2937 (bvsge ?x2337 ?x3068)))
 (let ((?x701 (ite $x2937 (bvadd (bvsub ?x2337 ?x3068) (_ bv1 32)) (ite $x583 (bvadd (bvsub ?x2337 ?x1626) (_ bv1 32)) ?x5445))))
 (let ((?x1549 (ite $x11908 (_ bv244 32) (_ bv243 32))))
 (let (($x2961 (bvsge ?x2337 ?x1549)))
 (let ((?x8141 (ite $x11908 (_ bv274 32) (_ bv273 32))))
 (let (($x2577 (bvsge ?x2337 ?x8141)))
 (let ((?x596 (ite $x2577 (bvadd (bvsub ?x2337 ?x8141) (_ bv1 32)) (ite $x2961 (bvadd (bvsub ?x2337 ?x1549) (_ bv1 32)) ?x701))))
 (let ((?x903 (ite $x11908 (_ bv305 32) (_ bv304 32))))
 (let (($x1761 (bvsge ?x2337 ?x903)))
 (let ((?x6357 (ite $x11908 (_ bv335 32) (_ bv334 32))))
 (let (($x783 (bvsge ?x2337 ?x6357)))
 (let ((?x42519 (ite $x783 (bvadd (bvsub ?x2337 ?x6357) (_ bv1 32)) (ite $x1761 (bvadd (bvsub ?x2337 ?x903) (_ bv1 32)) ?x596))))
 (let ((?x4253 (bvmul (_ bv0 32) (_ bv12 32))))
 (let ((?x46826 (bvadd ?x4253 (_ bv13 32))))
 (let ((?x61399 (ite $x5091 (_ bv6 32) (ite $x1945 (_ bv5 32) (ite $x3364 (_ bv4 32) (ite $x805 (_ bv3 32) (ite $x5366 (_ bv2 32) (_ bv1 32))))))))
 (let ((?x6068 (ite $x1761 (_ bv11 32) (ite $x2577 (_ bv10 32) (ite $x2961 (_ bv9 32) (ite $x2937 (_ bv8 32) (ite $x583 (_ bv7 32) ?x61399)))))))
 (let ((?x11059 (ite $x783 (_ bv12 32) ?x6068)))
 (let ((?x54211 (bvadd ?x11059 ?x46826)))
 (let ((?x27916 (bvsub (ite (bvuge ?x54211 (_ bv2147483648 32)) (bvsub ?x54211 (_ bv0 32)) ?x54211) (_ bv1 32))))
 (let ((?x51756 (bvsmod ?x27916 (_ bv12 32))))
 (let ((?x81247 (bvadd ?x51756 (_ bv1 32))))
 (let ((?x77643 (ite (or (= ?x81247 (_ bv4 32)) (= ?x81247 (_ bv6 32)) (= ?x81247 (_ bv9 32)) (= ?x81247 (_ bv11 32))) (_ bv30 32) (_ bv31 32))))
 (let ((?x81140 (bvsdiv ?x27916 (_ bv12 32))))
 (let ((?x77607 (ite (and (bvuge ?x27916 (_ bv2147483648 32)) (and (distinct (_ bv0 32) ?x51756) true)) (bvsub ?x81140 (_ bv1 32)) ?x81140)))
 (let ((?x44658 (bvadd (_ bv0 32) ?x77607)))
 (let ((?x81225 (bvadd ?x26236 ?x44658)))
 (let (($x81081 (or (and (= (bvsmod ?x81225 (_ bv4 32)) (_ bv0 32)) (and (distinct (bvsmod ?x81225 (_ bv100 32)) (_ bv0 32)) true)) (= (bvsmod ?x81225 (_ bv400 32)) (_ bv0 32)))))
 (let ((?x77705 (ite (= ?x81247 (_ bv2 32)) (ite $x81081 (_ bv29 32) (_ bv28 32)) ?x77643)))
 (let (($x58947 (bvsgt (_ bv1 32) ?x42519)))
 (let ((?x77622 (ite $x58947 (_ bv1 32) (ite (bvsgt ?x42519 ?x77705) ?x77705 ?x42519))))
 (let ((?x2429 (ite (bvsgt (_ bv1 32) ?x77622) (_ bv1 32) (ite (bvsgt ?x77622 ?x77705) ?x77705 ?x77622))))
 (let ((?x81201 (ite (= (_ bv2 32) ?x81247) (ite $x81081 (_ bv31 32) (_ bv31 32)) (ite (= (_ bv1 32) ?x81247) (ite $x81081 (_ bv0 32) (_ bv0 32)) (_ bv0 32)))))
 (let ((?x30339 (ite (= (_ bv4 32) ?x81247) (ite $x81081 (_ bv91 32) (_ bv90 32)) (ite (= (_ bv3 32) ?x81247) (ite $x81081 (_ bv60 32) (_ bv59 32)) ?x81201))))
 (let ((?x26482 (ite (= (_ bv6 32) ?x81247) (ite $x81081 (_ bv152 32) (_ bv151 32)) (ite (= (_ bv5 32) ?x81247) (ite $x81081 (_ bv121 32) (_ bv120 32)) ?x30339))))
 (let ((?x26290 (ite (= (_ bv8 32) ?x81247) (ite $x81081 (_ bv213 32) (_ bv212 32)) (ite (= (_ bv7 32) ?x81247) (ite $x81081 (_ bv182 32) (_ bv181 32)) ?x26482))))
 (let ((?x25780 (ite (= (_ bv10 32) ?x81247) (ite $x81081 (_ bv274 32) (_ bv273 32)) (ite (= (_ bv9 32) ?x81247) (ite $x81081 (_ bv244 32) (_ bv243 32)) ?x26290))))
 (let ((?x10666 (ite (= (_ bv12 32) ?x81247) (ite $x81081 (_ bv335 32) (_ bv334 32)) (ite (= (_ bv11 32) ?x81247) (ite $x81081 (_ bv305 32) (_ bv304 32)) ?x25780))))
 (let ((?x31145 (bvadd (bvmul (_ bv365 32) (bvsub ?x81225 (_ bv1 32))) (bvsdiv (bvsub ?x81225 (_ bv1 32)) (_ bv4 32)))))
 (let ((?x81146 (bvadd (bvsub ?x31145 (bvsdiv (bvsub ?x81225 (_ bv1 32)) (_ bv100 32))) (bvsdiv (bvsub ?x81225 (_ bv1 32)) (_ bv400 32)))))
 (let ((?x26500 (bvadd (bvadd (bvsub (bvadd (bvadd ?x81146 ?x10666) (bvsub ?x2429 (_ bv1 32))) (_ bv730179 32)) (_ bv40 32)) (_ bv730179 32))))
 (let ((?x81439 (bvsmod ?x26500 (_ bv146097 32))))
 (let ((?x81350 (bvsdiv ?x81439 (_ bv36524 32))))
 (let ((?x81342 (ite (bvsle (_ bv4 32) ?x81350) (_ bv3 32) ?x81350)))
 (let ((?x77787 (bvsub ?x81439 (bvmul ?x81342 (_ bv36524 32)))))
 (let ((?x77687 (bvsmod ?x77787 (_ bv1461 32))))
 (let ((?x77774 (bvsdiv ?x77687 (_ bv365 32))))
 (let ((?x81086 (ite (bvsle (_ bv4 32) ?x77774) (_ bv3 32) ?x77774)))
 (let ((?x18961 (bvadd (bvadd (bvmul (bvsdiv ?x26500 (_ bv146097 32)) (_ bv400 32)) (bvmul ?x81342 (_ bv100 32))) (bvmul (bvsdiv ?x77787 (_ bv1461 32)) (_ bv4 32)))))
 (let ((?x30242 (bvadd (bvadd ?x18961 ?x81086) (_ bv1 32))))
 (let (($x81381 (or (and (= (bvsmod ?x30242 (_ bv4 32)) (_ bv0 32)) (and (distinct (bvsmod ?x30242 (_ bv100 32)) (_ bv0 32)) true)) (= (bvsmod ?x30242 (_ bv400 32)) (_ bv0 32)))))
 (let ((?x81290 (ite $x81381 (_ bv31 32) (_ bv31 32))))
 (let ((?x81197 (bvsub ?x77687 (bvmul ?x81086 (_ bv365 32)))))
 (let (($x81349 (bvsge ?x81197 ?x81290)))
 (let ((?x78871 (ite $x81381 (_ bv60 32) (_ bv59 32))))
 (let (($x30310 (bvsge ?x81197 ?x78871)))
 (let ((?x74264 (ite $x81381 (_ bv91 32) (_ bv90 32))))
 (let (($x30219 (bvsge ?x81197 ?x74264)))
 (let ((?x33705 (ite $x81381 (_ bv121 32) (_ bv120 32))))
 (let (($x29354 (bvsge ?x81197 ?x33705)))
 (let ((?x78502 (ite $x81381 (_ bv152 32) (_ bv151 32))))
 (let (($x26563 (bvsge ?x81197 ?x78502)))
 (let ((?x31777 (ite $x26563 (_ bv6 32) (ite $x29354 (_ bv5 32) (ite $x30219 (_ bv4 32) (ite $x30310 (_ bv3 32) (ite $x81349 (_ bv2 32) (_ bv1 32))))))))
 (let ((?x7275 (ite $x81381 (_ bv182 32) (_ bv181 32))))
 (let (($x30179 (bvsge ?x81197 ?x7275)))
 (let ((?x77638 (ite $x81381 (_ bv213 32) (_ bv212 32))))
 (let (($x29609 (bvsge ?x81197 ?x77638)))
 (let ((?x81078 (ite $x81381 (_ bv244 32) (_ bv243 32))))
 (let (($x26597 (bvsge ?x81197 ?x81078)))
 (let ((?x77691 (ite $x81381 (_ bv274 32) (_ bv273 32))))
 (let (($x33502 (bvsge ?x81197 ?x77691)))
 (let ((?x81139 (ite $x81381 (_ bv305 32) (_ bv304 32))))
 (let (($x26543 (bvsge ?x81197 ?x81139)))
 (let ((?x26444 (ite $x26543 (_ bv11 32) (ite $x33502 (_ bv10 32) (ite $x26597 (_ bv9 32) (ite $x29609 (_ bv8 32) (ite $x30179 (_ bv7 32) ?x31777)))))))
 (let ((?x81064 (ite $x81381 (_ bv335 32) (_ bv334 32))))
 (let (($x26559 (bvsge ?x81197 ?x81064)))
 (let ((?x18835 (ite $x26559 (_ bv12 32) ?x26444)))
 (let (($x81088 (= (_ bv40 32) (_ bv0 32))))
 (let ((?x25852 (ite $x81088 ?x81247 ?x18835)))
 (= x_plus_month ?x25852))))))))))))))))))))))))))))))))))))))))))))))))))))))))))))))))))))))))))))))))))))))))))))))))))))))))))))
(assert
 (let ((?x1201 (bvadd x_epoch (_ bv730179 32))))
 (let ((?x33573 (bvsmod ?x1201 (_ bv146097 32))))
 (let ((?x2516 (bvsdiv ?x33573 (_ bv36524 32))))
 (let ((?x15886 (ite (bvsle (_ bv4 32) ?x2516) (_ bv3 32) ?x2516)))
 (let ((?x8168 (bvsub ?x33573 (bvmul ?x15886 (_ bv36524 32)))))
 (let ((?x1140 (bvsmod ?x8168 (_ bv1461 32))))
 (let ((?x1161 (bvsdiv ?x1140 (_ bv365 32))))
 (let ((?x11749 (ite (bvsle (_ bv4 32) ?x1161) (_ bv3 32) ?x1161)))
 (let ((?x3564 (bvadd (bvadd (bvmul (bvsdiv ?x1201 (_ bv146097 32)) (_ bv400 32)) (bvmul ?x15886 (_ bv100 32))) (bvmul (bvsdiv ?x8168 (_ bv1461 32)) (_ bv4 32)))))
 (let ((?x26236 (bvadd (bvadd ?x3564 ?x11749) (_ bv1 32))))
 (let (($x11908 (or (and (= (bvsmod ?x26236 (_ bv4 32)) (_ bv0 32)) (and (distinct (bvsmod ?x26236 (_ bv100 32)) (_ bv0 32)) true)) (= (bvsmod ?x26236 (_ bv400 32)) (_ bv0 32)))))
 (let ((?x2337 (bvsub ?x1140 (bvmul ?x11749 (_ bv365 32)))))
 (let ((?x3734 (ite $x11908 (_ bv31 32) (_ bv31 32))))
 (let (($x5366 (bvsge ?x2337 ?x3734)))
 (let ((?x5792 (ite $x5366 (bvadd (bvsub ?x2337 ?x3734) (_ bv1 32)) (bvadd (bvsub ?x2337 (ite $x11908 (_ bv0 32) (_ bv0 32))) (_ bv1 32)))))
 (let ((?x47417 (ite $x11908 (_ bv60 32) (_ bv59 32))))
 (let (($x805 (bvsge ?x2337 ?x47417)))
 (let ((?x2296 (ite $x11908 (_ bv91 32) (_ bv90 32))))
 (let (($x3364 (bvsge ?x2337 ?x2296)))
 (let ((?x20760 (ite $x3364 (bvadd (bvsub ?x2337 ?x2296) (_ bv1 32)) (ite $x805 (bvadd (bvsub ?x2337 ?x47417) (_ bv1 32)) ?x5792))))
 (let ((?x37289 (ite $x11908 (_ bv121 32) (_ bv120 32))))
 (let (($x1945 (bvsge ?x2337 ?x37289)))
 (let ((?x2125 (ite $x11908 (_ bv152 32) (_ bv151 32))))
 (let (($x5091 (bvsge ?x2337 ?x2125)))
 (let ((?x5445 (ite $x5091 (bvadd (bvsub ?x2337 ?x2125) (_ bv1 32)) (ite $x1945 (bvadd (bvsub ?x2337 ?x37289) (_ bv1 32)) ?x20760))))
 (let ((?x1626 (ite $x11908 (_ bv182 32) (_ bv181 32))))
 (let (($x583 (bvsge ?x2337 ?x1626)))
 (let ((?x3068 (ite $x11908 (_ bv213 32) (_ bv212 32))))
 (let (($x2937 (bvsge ?x2337 ?x3068)))
 (let ((?x701 (ite $x2937 (bvadd (bvsub ?x2337 ?x3068) (_ bv1 32)) (ite $x583 (bvadd (bvsub ?x2337 ?x1626) (_ bv1 32)) ?x5445))))
 (let ((?x1549 (ite $x11908 (_ bv244 32) (_ bv243 32))))
 (let (($x2961 (bvsge ?x2337 ?x1549)))
 (let ((?x8141 (ite $x11908 (_ bv274 32) (_ bv273 32))))
 (let (($x2577 (bvsge ?x2337 ?x8141)))
 (let ((?x596 (ite $x2577 (bvadd (bvsub ?x2337 ?x8141) (_ bv1 32)) (ite $x2961 (bvadd (bvsub ?x2337 ?x1549) (_ bv1 32)) ?x701))))
 (let ((?x903 (ite $x11908 (_ bv305 32) (_ bv304 32))))
 (let (($x1761 (bvsge ?x2337 ?x903)))
 (let ((?x6357 (ite $x11908 (_ bv335 32) (_ bv334 32))))
 (let (($x783 (bvsge ?x2337 ?x6357)))
 (let ((?x42519 (ite $x783 (bvadd (bvsub ?x2337 ?x6357) (_ bv1 32)) (ite $x1761 (bvadd (bvsub ?x2337 ?x903) (_ bv1 32)) ?x596))))
 (let ((?x4253 (bvmul (_ bv0 32) (_ bv12 32))))
 (let ((?x46826 (bvadd ?x4253 (_ bv13 32))))
 (let ((?x61399 (ite $x5091 (_ bv6 32) (ite $x1945 (_ bv5 32) (ite $x3364 (_ bv4 32) (ite $x805 (_ bv3 32) (ite $x5366 (_ bv2 32) (_ bv1 32))))))))
 (let ((?x6068 (ite $x1761 (_ bv11 32) (ite $x2577 (_ bv10 32) (ite $x2961 (_ bv9 32) (ite $x2937 (_ bv8 32) (ite $x583 (_ bv7 32) ?x61399)))))))
 (let ((?x11059 (ite $x783 (_ bv12 32) ?x6068)))
 (let ((?x54211 (bvadd ?x11059 ?x46826)))
 (let ((?x27916 (bvsub (ite (bvuge ?x54211 (_ bv2147483648 32)) (bvsub ?x54211 (_ bv0 32)) ?x54211) (_ bv1 32))))
 (let ((?x51756 (bvsmod ?x27916 (_ bv12 32))))
 (let ((?x81247 (bvadd ?x51756 (_ bv1 32))))
 (let ((?x77643 (ite (or (= ?x81247 (_ bv4 32)) (= ?x81247 (_ bv6 32)) (= ?x81247 (_ bv9 32)) (= ?x81247 (_ bv11 32))) (_ bv30 32) (_ bv31 32))))
 (let ((?x81140 (bvsdiv ?x27916 (_ bv12 32))))
 (let ((?x77607 (ite (and (bvuge ?x27916 (_ bv2147483648 32)) (and (distinct (_ bv0 32) ?x51756) true)) (bvsub ?x81140 (_ bv1 32)) ?x81140)))
 (let ((?x44658 (bvadd (_ bv0 32) ?x77607)))
 (let ((?x81225 (bvadd ?x26236 ?x44658)))
 (let (($x81081 (or (and (= (bvsmod ?x81225 (_ bv4 32)) (_ bv0 32)) (and (distinct (bvsmod ?x81225 (_ bv100 32)) (_ bv0 32)) true)) (= (bvsmod ?x81225 (_ bv400 32)) (_ bv0 32)))))
 (let ((?x77705 (ite (= ?x81247 (_ bv2 32)) (ite $x81081 (_ bv29 32) (_ bv28 32)) ?x77643)))
 (let (($x58947 (bvsgt (_ bv1 32) ?x42519)))
 (let ((?x77622 (ite $x58947 (_ bv1 32) (ite (bvsgt ?x42519 ?x77705) ?x77705 ?x42519))))
 (let ((?x2429 (ite (bvsgt (_ bv1 32) ?x77622) (_ bv1 32) (ite (bvsgt ?x77622 ?x77705) ?x77705 ?x77622))))
 (let ((?x81201 (ite (= (_ bv2 32) ?x81247) (ite $x81081 (_ bv31 32) (_ bv31 32)) (ite (= (_ bv1 32) ?x81247) (ite $x81081 (_ bv0 32) (_ bv0 32)) (_ bv0 32)))))
 (let ((?x30339 (ite (= (_ bv4 32) ?x81247) (ite $x81081 (_ bv91 32) (_ bv90 32)) (ite (= (_ bv3 32) ?x81247) (ite $x81081 (_ bv60 32) (_ bv59 32)) ?x81201))))
 (let ((?x26482 (ite (= (_ bv6 32) ?x81247) (ite $x81081 (_ bv152 32) (_ bv151 32)) (ite (= (_ bv5 32) ?x81247) (ite $x81081 (_ bv121 32) (_ bv120 32)) ?x30339))))
 (let ((?x26290 (ite (= (_ bv8 32) ?x81247) (ite $x81081 (_ bv213 32) (_ bv212 32)) (ite (= (_ bv7 32) ?x81247) (ite $x81081 (_ bv182 32) (_ bv181 32)) ?x26482))))
 (let ((?x25780 (ite (= (_ bv10 32) ?x81247) (ite $x81081 (_ bv274 32) (_ bv273 32)) (ite (= (_ bv9 32) ?x81247) (ite $x81081 (_ bv244 32) (_ bv243 32)) ?x26290))))
 (let ((?x10666 (ite (= (_ bv12 32) ?x81247) (ite $x81081 (_ bv335 32) (_ bv334 32)) (ite (= (_ bv11 32) ?x81247) (ite $x81081 (_ bv305 32) (_ bv304 32)) ?x25780))))
 (let ((?x31145 (bvadd (bvmul (_ bv365 32) (bvsub ?x81225 (_ bv1 32))) (bvsdiv (bvsub ?x81225 (_ bv1 32)) (_ bv4 32)))))
 (let ((?x81146 (bvadd (bvsub ?x31145 (bvsdiv (bvsub ?x81225 (_ bv1 32)) (_ bv100 32))) (bvsdiv (bvsub ?x81225 (_ bv1 32)) (_ bv400 32)))))
 (let ((?x26500 (bvadd (bvadd (bvsub (bvadd (bvadd ?x81146 ?x10666) (bvsub ?x2429 (_ bv1 32))) (_ bv730179 32)) (_ bv40 32)) (_ bv730179 32))))
 (let ((?x81439 (bvsmod ?x26500 (_ bv146097 32))))
 (let ((?x81350 (bvsdiv ?x81439 (_ bv36524 32))))
 (let ((?x81342 (ite (bvsle (_ bv4 32) ?x81350) (_ bv3 32) ?x81350)))
 (let ((?x77787 (bvsub ?x81439 (bvmul ?x81342 (_ bv36524 32)))))
 (let ((?x77687 (bvsmod ?x77787 (_ bv1461 32))))
 (let ((?x77774 (bvsdiv ?x77687 (_ bv365 32))))
 (let ((?x81086 (ite (bvsle (_ bv4 32) ?x77774) (_ bv3 32) ?x77774)))
 (let ((?x18961 (bvadd (bvadd (bvmul (bvsdiv ?x26500 (_ bv146097 32)) (_ bv400 32)) (bvmul ?x81342 (_ bv100 32))) (bvmul (bvsdiv ?x77787 (_ bv1461 32)) (_ bv4 32)))))
 (let ((?x30242 (bvadd (bvadd ?x18961 ?x81086) (_ bv1 32))))
 (let (($x81381 (or (and (= (bvsmod ?x30242 (_ bv4 32)) (_ bv0 32)) (and (distinct (bvsmod ?x30242 (_ bv100 32)) (_ bv0 32)) true)) (= (bvsmod ?x30242 (_ bv400 32)) (_ bv0 32)))))
 (let ((?x81197 (bvsub ?x77687 (bvmul ?x81086 (_ bv365 32)))))
 (let ((?x81290 (ite $x81381 (_ bv31 32) (_ bv31 32))))
 (let (($x81349 (bvsge ?x81197 ?x81290)))
 (let ((?x18948 (ite $x81349 (bvadd (bvsub ?x81197 ?x81290) (_ bv1 32)) (bvadd (bvsub ?x81197 (ite $x81381 (_ bv0 32) (_ bv0 32))) (_ bv1 32)))))
 (let ((?x78871 (ite $x81381 (_ bv60 32) (_ bv59 32))))
 (let (($x30310 (bvsge ?x81197 ?x78871)))
 (let ((?x74264 (ite $x81381 (_ bv91 32) (_ bv90 32))))
 (let (($x30219 (bvsge ?x81197 ?x74264)))
 (let ((?x17878 (ite $x30219 (bvadd (bvsub ?x81197 ?x74264) (_ bv1 32)) (ite $x30310 (bvadd (bvsub ?x81197 ?x78871) (_ bv1 32)) ?x18948))))
 (let ((?x33705 (ite $x81381 (_ bv121 32) (_ bv120 32))))
 (let (($x29354 (bvsge ?x81197 ?x33705)))
 (let ((?x78502 (ite $x81381 (_ bv152 32) (_ bv151 32))))
 (let (($x26563 (bvsge ?x81197 ?x78502)))
 (let ((?x77664 (ite $x26563 (bvadd (bvsub ?x81197 ?x78502) (_ bv1 32)) (ite $x29354 (bvadd (bvsub ?x81197 ?x33705) (_ bv1 32)) ?x17878))))
 (let ((?x7275 (ite $x81381 (_ bv182 32) (_ bv181 32))))
 (let (($x30179 (bvsge ?x81197 ?x7275)))
 (let ((?x77638 (ite $x81381 (_ bv213 32) (_ bv212 32))))
 (let (($x29609 (bvsge ?x81197 ?x77638)))
 (let ((?x32685 (ite $x29609 (bvadd (bvsub ?x81197 ?x77638) (_ bv1 32)) (ite $x30179 (bvadd (bvsub ?x81197 ?x7275) (_ bv1 32)) ?x77664))))
 (let ((?x81078 (ite $x81381 (_ bv244 32) (_ bv243 32))))
 (let (($x26597 (bvsge ?x81197 ?x81078)))
 (let ((?x77691 (ite $x81381 (_ bv274 32) (_ bv273 32))))
 (let (($x33502 (bvsge ?x81197 ?x77691)))
 (let ((?x26536 (ite $x33502 (bvadd (bvsub ?x81197 ?x77691) (_ bv1 32)) (ite $x26597 (bvadd (bvsub ?x81197 ?x81078) (_ bv1 32)) ?x32685))))
 (let ((?x81139 (ite $x81381 (_ bv305 32) (_ bv304 32))))
 (let (($x26543 (bvsge ?x81197 ?x81139)))
 (let ((?x81064 (ite $x81381 (_ bv335 32) (_ bv334 32))))
 (let (($x26559 (bvsge ?x81197 ?x81064)))
 (let ((?x81264 (ite $x26559 (bvadd (bvsub ?x81197 ?x81064) (_ bv1 32)) (ite $x26543 (bvadd (bvsub ?x81197 ?x81139) (_ bv1 32)) ?x26536))))
 (let (($x81088 (= (_ bv40 32) (_ bv0 32))))
 (let ((?x81240 (ite $x81088 ?x2429 ?x81264)))
 (= x_plus_day ?x81240)))))))))))))))))))))))))))))))))))))))))))))))))))))))))))))))))))))))))))))))))))))))))))))))))))))))))))))))
(assert
 (= y_epoch x_plus_epoch))
(assert
 (not (= y_epoch (_ bv8395 32))))
(check-sat)
